objective value:                                   -3
t_n_13                                              1 	(obj:-1)
t_n_908                                             1 	(obj:-1)
t_n_1438                                            1 	(obj:-1)
